% Instancia generada para Grupo 5
% Diámetros: [75, 100, 150] mm
% Capacidades: [795, 1414, 3181] l/min
% Demanda total: 2831 l/min
% Costos tipo a: 763, tipo b: 749
% Semilla: 605127

nP = 4;
nT = 12;
nC1 = 12;
nC2 = 26;
N = 54;

nA = 504;
arc_from = [1, 1, 1, 1, 1, 1, 1, 1, 1, 1, 1, 1, 2, 2, 2, 2, 2, 2, 2, 2, 2, 2, 2, 2, 3, 3, 3, 3, 3, 3, 3, 3, 3, 3, 3, 3, 4, 4, 4, 4, 4, 4, 4, 4, 4, 4, 4, 4, 5, 5, 5, 5, 5, 5, 5, 5, 5, 5, 5, 5, 6, 6, 6, 6, 6, 6, 6, 6, 6, 6, 6, 6, 7, 7, 7, 7, 7, 7, 7, 7, 7, 7, 7, 7, 8, 8, 8, 8, 8, 8, 8, 8, 8, 8, 8, 8, 9, 9, 9, 9, 9, 9, 9, 9, 9, 9, 9, 9, 10, 10, 10, 10, 10, 10, 10, 10, 10, 10, 10, 10, 11, 11, 11, 11, 11, 11, 11, 11, 11, 11, 11, 11, 12, 12, 12, 12, 12, 12, 12, 12, 12, 12, 12, 12, 13, 13, 13, 13, 13, 13, 13, 13, 13, 13, 13, 13, 14, 14, 14, 14, 14, 14, 14, 14, 14, 14, 14, 14, 15, 15, 15, 15, 15, 15, 15, 15, 15, 15, 15, 15, 16, 16, 16, 16, 16, 16, 16, 16, 16, 16, 16, 16, 17, 17, 17, 17, 17, 17, 17, 17, 17, 17, 17, 17, 17, 17, 17, 17, 17, 17, 17, 17, 17, 17, 17, 17, 17, 17, 18, 18, 18, 18, 18, 18, 18, 18, 18, 18, 18, 18, 18, 18, 18, 18, 18, 18, 18, 18, 18, 18, 18, 18, 18, 18, 19, 19, 19, 19, 19, 19, 19, 19, 19, 19, 19, 19, 19, 19, 19, 19, 19, 19, 19, 19, 19, 19, 19, 19, 19, 19, 20, 20, 20, 20, 20, 20, 20, 20, 20, 20, 20, 20, 20, 20, 20, 20, 20, 20, 20, 20, 20, 20, 20, 20, 20, 20, 21, 21, 21, 21, 21, 21, 21, 21, 21, 21, 21, 21, 21, 21, 21, 21, 21, 21, 21, 21, 21, 21, 21, 21, 21, 21, 22, 22, 22, 22, 22, 22, 22, 22, 22, 22, 22, 22, 22, 22, 22, 22, 22, 22, 22, 22, 22, 22, 22, 22, 22, 22, 23, 23, 23, 23, 23, 23, 23, 23, 23, 23, 23, 23, 23, 23, 23, 23, 23, 23, 23, 23, 23, 23, 23, 23, 23, 23, 24, 24, 24, 24, 24, 24, 24, 24, 24, 24, 24, 24, 24, 24, 24, 24, 24, 24, 24, 24, 24, 24, 24, 24, 24, 24, 25, 25, 25, 25, 25, 25, 25, 25, 25, 25, 25, 25, 25, 25, 25, 25, 25, 25, 25, 25, 25, 25, 25, 25, 25, 25, 26, 26, 26, 26, 26, 26, 26, 26, 26, 26, 26, 26, 26, 26, 26, 26, 26, 26, 26, 26, 26, 26, 26, 26, 26, 26, 27, 27, 27, 27, 27, 27, 27, 27, 27, 27, 27, 27, 27, 27, 27, 27, 27, 27, 27, 27, 27, 27, 27, 27, 27, 27, 28, 28, 28, 28, 28, 28, 28, 28, 28, 28, 28, 28, 28, 28, 28, 28, 28, 28, 28, 28, 28, 28, 28, 28, 28, 28];
arc_to   = [5, 6, 7, 8, 9, 10, 11, 12, 13, 14, 15, 16, 5, 6, 7, 8, 9, 10, 11, 12, 13, 14, 15, 16, 5, 6, 7, 8, 9, 10, 11, 12, 13, 14, 15, 16, 5, 6, 7, 8, 9, 10, 11, 12, 13, 14, 15, 16, 17, 18, 19, 20, 21, 22, 23, 24, 25, 26, 27, 28, 17, 18, 19, 20, 21, 22, 23, 24, 25, 26, 27, 28, 17, 18, 19, 20, 21, 22, 23, 24, 25, 26, 27, 28, 17, 18, 19, 20, 21, 22, 23, 24, 25, 26, 27, 28, 17, 18, 19, 20, 21, 22, 23, 24, 25, 26, 27, 28, 17, 18, 19, 20, 21, 22, 23, 24, 25, 26, 27, 28, 17, 18, 19, 20, 21, 22, 23, 24, 25, 26, 27, 28, 17, 18, 19, 20, 21, 22, 23, 24, 25, 26, 27, 28, 17, 18, 19, 20, 21, 22, 23, 24, 25, 26, 27, 28, 17, 18, 19, 20, 21, 22, 23, 24, 25, 26, 27, 28, 17, 18, 19, 20, 21, 22, 23, 24, 25, 26, 27, 28, 17, 18, 19, 20, 21, 22, 23, 24, 25, 26, 27, 28, 29, 30, 31, 32, 33, 34, 35, 36, 37, 38, 39, 40, 41, 42, 43, 44, 45, 46, 47, 48, 49, 50, 51, 52, 53, 54, 29, 30, 31, 32, 33, 34, 35, 36, 37, 38, 39, 40, 41, 42, 43, 44, 45, 46, 47, 48, 49, 50, 51, 52, 53, 54, 29, 30, 31, 32, 33, 34, 35, 36, 37, 38, 39, 40, 41, 42, 43, 44, 45, 46, 47, 48, 49, 50, 51, 52, 53, 54, 29, 30, 31, 32, 33, 34, 35, 36, 37, 38, 39, 40, 41, 42, 43, 44, 45, 46, 47, 48, 49, 50, 51, 52, 53, 54, 29, 30, 31, 32, 33, 34, 35, 36, 37, 38, 39, 40, 41, 42, 43, 44, 45, 46, 47, 48, 49, 50, 51, 52, 53, 54, 29, 30, 31, 32, 33, 34, 35, 36, 37, 38, 39, 40, 41, 42, 43, 44, 45, 46, 47, 48, 49, 50, 51, 52, 53, 54, 29, 30, 31, 32, 33, 34, 35, 36, 37, 38, 39, 40, 41, 42, 43, 44, 45, 46, 47, 48, 49, 50, 51, 52, 53, 54, 29, 30, 31, 32, 33, 34, 35, 36, 37, 38, 39, 40, 41, 42, 43, 44, 45, 46, 47, 48, 49, 50, 51, 52, 53, 54, 29, 30, 31, 32, 33, 34, 35, 36, 37, 38, 39, 40, 41, 42, 43, 44, 45, 46, 47, 48, 49, 50, 51, 52, 53, 54, 29, 30, 31, 32, 33, 34, 35, 36, 37, 38, 39, 40, 41, 42, 43, 44, 45, 46, 47, 48, 49, 50, 51, 52, 53, 54, 29, 30, 31, 32, 33, 34, 35, 36, 37, 38, 39, 40, 41, 42, 43, 44, 45, 46, 47, 48, 49, 50, 51, 52, 53, 54, 29, 30, 31, 32, 33, 34, 35, 36, 37, 38, 39, 40, 41, 42, 43, 44, 45, 46, 47, 48, 49, 50, 51, 52, 53, 54];

demand = [0, 0, 0, 0, 0, 0, 0, 0, 0, 0, 0, 0, 0, 0, 0, 0, 47, 72, 94, 81, 89, 82, 40, 82, 82, 45, 64, 79, 88, 85, 72, 93, 41, 89, 56, 90, 98, 86, 42, 90, 40, 79, 42, 93, 74, 80, 40, 64, 94, 88, 94, 81, 81, 94];

install_cost = array2d(1..504, 1..3, [50, 62, 78, 20, 62, 32, 50, 62, 32, 50, 62, 32, 20, 62, 32, 20, 24, 32, 20, 24, 32, 50, 24, 78, 50, 62, 32, 50, 24, 32, 50, 24, 32, 50, 62, 32, 20, 62, 78, 50, 62, 78, 20, 62, 78, 20, 24, 32, 20, 62, 78, 20, 24, 78, 20, 62, 78, 20, 24, 32, 20, 62, 32, 50, 24, 78, 50, 24, 78, 50, 62, 78, 20, 24, 78, 50, 62, 78, 20, 62, 32, 50, 24, 78, 20, 62, 78, 50, 24, 32, 50, 24, 78, 50, 24, 32, 50, 62, 78, 50, 24, 78, 20, 24, 32, 20, 62, 32, 50, 62, 32, 50, 62, 78, 50, 62, 78, 20, 24, 32, 20, 24, 32, 20, 24, 78, 50, 62, 32, 20, 62, 32, 50, 62, 78, 20, 62, 78, 50, 24, 32, 20, 24, 78, 20, 62, 78, 20, 24, 78, 20, 62, 32, 20, 24, 32, 20, 62, 78, 20, 62, 32, 20, 24, 78, 50, 24, 78, 50, 24, 78, 20, 62, 78, 20, 62, 32, 50, 24, 78, 50, 24, 32, 50, 24, 78, 20, 62, 32, 50, 62, 32, 20, 24, 78, 20, 62, 32, 50, 62, 32, 20, 24, 78, 20, 62, 78, 20, 62, 32, 50, 24, 78, 50, 24, 78, 20, 62, 32, 50, 62, 32, 20, 24, 32, 50, 62, 32, 50, 62, 78, 50, 24, 32, 20, 62, 78, 50, 24, 32, 50, 62, 78, 50, 24, 78, 20, 62, 32, 20, 62, 78, 20, 24, 78, 50, 24, 32, 20, 62, 78, 50, 24, 32, 50, 24, 78, 20, 62, 78, 50, 24, 32, 50, 62, 32, 20, 24, 78, 20, 62, 32, 50, 24, 78, 50, 62, 78, 20, 62, 32, 20, 24, 32, 20, 62, 78, 20, 62, 32, 50, 24, 78, 50, 24, 32, 50, 62, 32, 50, 24, 78, 50, 24, 32, 20, 24, 78, 20, 24, 78, 20, 62, 32, 50, 24, 78, 20, 62, 78, 50, 62, 78, 50, 24, 32, 50, 24, 32, 20, 24, 78, 50, 62, 32, 50, 62, 78, 50, 24, 32, 50, 62, 32, 20, 62, 32, 20, 24, 78, 50, 24, 78, 50, 24, 32, 20, 24, 78, 20, 24, 32, 50, 62, 78, 50, 24, 78, 20, 62, 32, 50, 24, 32, 20, 24, 32, 50, 24, 32, 20, 62, 32, 50, 62, 78, 20, 24, 32, 50, 62, 78, 50, 62, 78, 20, 24, 78, 50, 62, 78, 20, 62, 32, 50, 24, 32, 20, 62, 78, 20, 24, 78, 50, 62, 78, 50, 24, 78, 20, 24, 32, 50, 62, 32, 50, 62, 78, 50, 24, 32, 50, 62, 78, 20, 62, 32, 50, 62, 78, 50, 62, 32, 20, 62, 78, 50, 62, 78, 20, 62, 78, 50, 62, 32, 20, 62, 78, 50, 24, 32, 20, 62, 32, 50, 24, 32, 20, 62, 78, 50, 24, 32, 20, 24, 78, 20, 24, 32, 20, 24, 32, 20, 24, 78, 50, 62, 78, 50, 62, 32, 20, 62, 78, 20, 24, 32, 20, 62, 32, 50, 62, 78, 50, 24, 32, 20, 24, 78, 20, 62, 32, 50, 62, 32, 50, 62, 32, 50, 62, 78, 50, 62, 78, 20, 24, 78, 20, 24, 32, 50, 62, 78, 50, 24, 32, 20, 24, 32, 20, 62, 78, 20, 24, 32, 50, 62, 78, 20, 24, 78, 20, 62, 78, 20, 62, 78, 20, 62, 32, 20, 62, 78, 20, 24, 78, 50, 24, 32, 20, 24, 78, 20, 24, 32, 20, 24, 32, 20, 62, 78, 50, 62, 78, 20, 62, 78, 20, 62, 78, 20, 24, 78, 50, 62, 78, 20, 62, 78, 50, 24, 78, 50, 62, 78, 50, 24, 32, 50, 62, 78, 20, 24, 78, 20, 62, 32, 20, 62, 78, 50, 62, 78, 50, 62, 78, 50, 24, 78, 20, 62, 32, 20, 24, 78, 50, 62, 32, 50, 62, 78, 50, 24, 32, 20, 62, 32, 50, 62, 78, 20, 62, 32, 20, 24, 78, 20, 62, 78, 50, 24, 32, 50, 24, 32, 50, 62, 78, 50, 62, 78, 50, 62, 78, 50, 24, 32, 50, 24, 78, 20, 24, 32, 20, 24, 32, 50, 62, 78, 50, 24, 32, 50, 24, 78, 20, 62, 78, 50, 62, 78, 50, 62, 32, 50, 62, 78, 50, 24, 78, 50, 24, 32, 20, 24, 32, 20, 62, 32, 20, 24, 32, 20, 62, 78, 50, 62, 78, 50, 62, 78, 20, 24, 32, 20, 62, 32, 50, 24, 32, 50, 62, 78, 50, 24, 32, 50, 24, 78, 50, 24, 32, 20, 24, 32, 50, 62, 32, 20, 24, 32, 50, 24, 32, 50, 62, 78, 50, 62, 32, 20, 62, 32, 50, 24, 32, 20, 24, 78, 20, 62, 78, 50, 62, 32, 20, 62, 32, 50, 62, 32, 20, 62, 78, 50, 62, 78, 20, 62, 78, 20, 62, 32, 20, 62, 78, 20, 24, 78, 50, 62, 78, 50, 62, 78, 20, 24, 32, 20, 62, 32, 20, 24, 32, 20, 24, 78, 20, 24, 78, 20, 62, 32, 50, 62, 32, 50, 24, 78, 20, 62, 32, 20, 62, 32, 20, 24, 78, 20, 24, 78, 50, 62, 78, 50, 24, 32, 50, 62, 32, 20, 24, 78, 20, 24, 32, 50, 62, 78, 50, 62, 78, 20, 62, 32, 20, 62, 78, 20, 24, 32, 50, 24, 32, 50, 62, 32, 50, 24, 78, 50, 62, 78, 20, 24, 32, 20, 24, 32, 20, 24, 78, 50, 24, 78, 50, 24, 32, 50, 62, 32, 20, 62, 32, 50, 24, 32, 50, 62, 32, 20, 62, 78, 20, 62, 32, 20, 24, 32, 50, 24, 32, 20, 62, 32, 50, 62, 32, 50, 24, 32, 20, 24, 78, 50, 24, 32, 20, 24, 32, 20, 24, 32, 50, 62, 32, 20, 24, 32, 50, 62, 32, 20, 62, 78, 20, 24, 32, 50, 24, 78, 50, 24, 32, 50, 62, 32, 50, 62, 32, 20, 24, 32, 20, 62, 78, 20, 62, 78, 20, 24, 78, 20, 62, 32, 20, 62, 32, 20, 62, 32, 50, 62, 78, 50, 62, 78, 50, 62, 78, 50, 62, 78, 20, 24, 32, 50, 24, 32, 50, 24, 32, 20, 24, 78, 20, 62, 78, 20, 62, 78, 20, 24, 32, 50, 24, 32, 50, 24, 78, 50, 24, 32, 20, 62, 32, 20, 62, 78, 20, 62, 32, 50, 24, 78, 20, 24, 32, 20, 24, 32, 20, 62, 78, 20, 62, 32, 20, 62, 78, 20, 24, 32, 20, 24, 78, 50, 62, 78, 50, 62, 32, 50, 62, 32, 20, 62, 32, 20, 62, 32, 20, 24, 78, 50, 24, 78, 50, 62, 78, 50, 24, 32, 20, 24, 78, 50, 62, 32, 20, 62, 32, 20, 62, 32, 20, 62, 32, 50, 62, 32, 20, 62, 32, 20, 62, 32, 50, 62, 32, 20, 24, 32, 50, 24, 78, 50, 24, 78, 50, 62, 32, 20, 24, 32, 20, 24, 32, 50, 62, 78, 20, 24, 32, 20, 62, 78, 50, 62, 78, 20, 24, 32, 20, 24, 78, 50, 24, 32, 20, 62, 32, 20, 24, 32, 20, 24, 32, 50, 24, 78, 20, 62, 32, 50, 62, 32, 20, 62, 32, 20, 24, 78, 50, 62, 78, 20, 62, 32, 50, 24, 32, 20, 62, 32, 20, 62, 32, 20, 62, 78, 50, 24, 32, 20, 24, 78, 20, 24, 78, 20, 62, 78, 50, 62, 32, 20, 62, 32, 20, 62, 32, 50, 62, 32, 50, 24, 32, 20, 24, 32, 50, 62, 32, 20, 62, 32, 20, 62, 78, 20, 62, 78, 20, 24, 32, 20, 24, 32, 50, 62, 32, 50, 24, 78, 50, 62, 78, 20, 62, 32, 50, 24, 32, 20, 24, 78, 50, 24, 78, 20, 62, 78, 20, 24, 78, 50, 24, 78, 50, 24, 78, 20, 24, 78, 20, 62, 78, 50, 62, 32, 50, 62, 78, 20, 24, 78, 50, 24, 78, 20, 24, 78, 50, 62, 32, 50, 24, 32, 20, 24, 78, 20, 62, 78, 20, 24, 32, 20, 62, 78, 20, 24, 32, 20, 62, 32, 50, 62, 78, 50, 62, 78, 20, 62, 78, 50, 24, 32, 50, 24, 32, 50, 24, 78, 20, 24, 78, 50, 62, 32, 50, 24, 32, 50, 62, 32, 50, 24, 78, 20, 24, 32, 20, 62, 32, 50, 24, 32, 50, 24, 32, 20, 62, 78, 50, 62, 32, 50, 62, 32, 20, 24, 78, 20, 62, 32, 50, 24, 78, 50, 24, 32, 50, 24, 32, 50, 24, 32, 20, 62, 78, 50, 24, 78, 20, 62, 32, 50, 24, 78, 50, 62, 78, 20, 62, 32, 50, 24, 32, 50, 24, 78, 20, 62, 78, 20, 62, 32, 20, 24, 78, 50, 62, 32, 50, 24, 32, 50, 62, 78, 20, 24, 32, 20, 62, 78, 20, 62, 32, 20, 62, 78, 50, 24, 32, 20, 24, 78, 20, 62, 78, 20, 24, 32, 20, 24, 32, 20, 62, 32, 50, 62, 78, 20, 24, 32, 20, 62, 78, 20, 62, 78, 20, 24, 32, 50, 24, 78, 20, 62, 32]);
trans_cost   = [10.47, 6.95, 9.88, 6.72, 6.47, 6.9, 7.36, 9.15, 5.8, 10.69, 6.95, 8.22, 8.13, 5.53, 8.63, 4.32, 11.63, 11.22, 9.45, 8.78, 9.63, 9.69, 7.63, 6.74, 5.41, 9.01, 5.98, 8.13, 6.95, 6.42, 9.83, 4.72, 10.67, 6.74, 7.42, 7.76, 10.72, 6.63, 6.79, 9.75, 7.42, 8.57, 8.17, 4.51, 10.67, 7.94, 8.71, 6.31, 8.5, 10.6, 6.58, 9.86, 6.91, 9.15, 6.4, 10.92, 3.75, 8.95, 8.18, 5.73, 10.55, 8.16, 10.19, 9.26, 7.62, 9.17, 7.18, 8.29, 9.46, 5.23, 7.19, 9.06, 6.52, 6.49, 8.48, 4.05, 7.64, 6.04, 6.83, 6.37, 5.63, 5.73, 7.91, 8.7, 10.54, 8.68, 10.87, 9.16, 6.98, 10.13, 9.98, 5.71, 10.46, 5.52, 12.97, 10.41, 6.75, 6.44, 7.57, 5.57, 10.64, 6.7, 6.96, 7.91, 5.17, 7.6, 2.69, 5.5, 6.93, 6.2, 8.47, 5.79, 8.46, 8.89, 5.97, 6.74, 6.46, 8.23, 12.1, 8.0, 7.42, 7.96, 10.65, 8.61, 8.68, 4.94, 8.03, 7.01, 6.07, 7.07, 9.71, 10.02, 9.58, 6.72, 5.36, 6.58, 9.68, 7.12, 11.44, 10.24, 8.07, 9.72, 7.09, 6.17, 10.21, 5.93, 9.52, 7.93, 3.61, 6.41, 7.28, 10.79, 7.93, 8.74, 7.42, 8.08, 8.56, 8.68, 9.04, 7.7, 6.43, 10.27, 9.74, 7.68, 8.59, 7.79, 11.14, 5.67, 8.9, 8.45, 3.23, 7.34, 9.34, 10.07, 9.36, 8.55, 7.98, 3.85, 7.3, 7.07, 7.63, 9.33, 6.26, 6.72, 10.73, 10.19, 10.97, 9.37, 4.41, 7.87, 7.88, 13.29, 9.32, 10.78, 6.55, 5.91, 7.7, 7.98, 6.13, 7.24, 9.13, 8.32, 2.67, 4.97, 5.01, 10.16, 8.53, 6.28, 8.91, 7.61, 7.7, 11.51, 8.2, 8.75, 12.08, 7.38, 9.03, 11.79, 7.49, 7.18, 8.76, 10.3, 7.0, 9.29, 7.43, 8.68, 6.87, 6.87, 4.35, 8.87, 9.28, 10.01, 5.55, 9.65, 9.36, 7.19, 11.06, 6.4, 8.71, 10.87, 6.97, 4.52, 9.74, 11.81, 6.65, 5.87, 7.34, 6.77, 9.31, 6.96, 5.13, 9.16, 8.14, 10.35, 8.22, 6.64, 5.51, 3.91, 9.19, 7.69, 9.21, 5.79, 8.62, 8.14, 8.24, 10.2, 9.17, 8.56, 8.94, 8.41, 5.37, 11.93, 9.34, 4.46, 8.62, 9.05, 8.29, 9.03, 9.13, 6.1, 10.05, 6.69, 10.89, 7.34, 5.25, 6.98, 8.28, 8.76, 5.23, 7.97, 7.04, 10.94, 6.98, 7.71, 8.61, 7.66, 9.9, 7.28, 7.07, 8.32, 9.26, 8.26, 7.91, 10.37, 5.72, 2.84, 9.01, 8.52, 5.2, 6.77, 8.39, 11.28, 8.95, 9.06, 7.26, 7.55, 8.33, 8.54, 5.36, 9.02, 9.72, 10.2, 8.85, 12.0, 6.54, 8.97, 5.48, 3.42, 7.07, 5.45, 8.31, 7.65, 7.11, 10.53, 9.87, 8.1, 8.39, 5.34, 9.95, 9.32, 7.05, 8.9, 11.47, 8.34, 8.98, 7.57, 6.02, 8.56, 5.85, 9.03, 5.74, 7.04, 7.44, 8.15, 6.43, 8.94, 8.79, 7.25, 10.13, 9.66, 9.18, 6.19, 8.17, 10.73, 5.5, 5.36, 9.24, 10.49, 9.64, 9.37, 7.88, 7.44, 9.24, 8.88, 8.89, 6.94, 10.64, 6.6, 6.82, 5.5, 7.78, 7.73, 9.33, 9.16, 7.24, 5.15, 6.67, 8.43, 7.75, 6.76, 7.08, 6.63, 8.68, 10.16, 10.41, 5.62, 11.03, 8.19, 8.68, 10.1, 6.75, 6.04, 6.44, 8.99, 8.77, 5.85, 7.19, 9.36, 8.77, 5.38, 8.98, 9.84, 11.05, 3.16, 9.11, 5.51, 9.07, 8.4, 6.4, 9.8, 9.51, 6.78, 5.19, 8.9, 9.6, 6.06, 10.67, 6.52, 8.4, 7.5, 7.62, 7.12, 8.48, 8.67, 10.97, 8.36, 6.21, 9.91, 5.57, 8.79, 8.27, 10.46, 8.58, 8.47, 8.44, 8.74, 8.14, 7.33, 4.55, 12.04, 8.72, 8.77, 6.77, 7.8, 8.05, 5.39, 3.55, 12.07, 8.89, 9.36, 7.79, 8.66, 6.84, 3.68, 7.13, 8.53, 9.41, 8.87, 6.46, 8.79, 9.61, 5.87, 5.17, 7.69, 8.26, 10.61, 10.32, 9.85, 8.1, 7.5, 8.03, 6.13, 8.2, 4.96, 8.13, 4.25, 11.21, 10.09, 7.77, 5.78, 2.42, 6.24, 9.29, 5.61, 7.49, 10.11, 8.32, 9.75, 5.83, 6.89, 6.17, 10.09, 11.9, 12.19];
